gen	cost
1	1441
2	1433
3	1408
4	1403
5	1386
6	1382
7	1358
8	1352
9	1348
10	1339
11	1318
12	1316
13	1310
14	1306
15	1305
16	1299
17	1281
18	1274
19	1270
20	1266
21	1262
22	1253
23	1246
24	1241
25	1241
26	1239
27	1239
28	1228
29	1228
30	1226
31	1226
32	1220
33	1220
34	1212
35	1209
36	1207
37	1207
38	1205
39	1200
40	1200
41	1199
42	1196
43	1189
44	1172
45	1168
46	1164
47	1160
48	1158
49	1158
50	1155

